
Gurobi 12.0.0 (mac64[arm]) logging started Tue Feb 17 09:20:47 2026

Set parameter LogFile to value "/Users/lennardhansmann/Desktop/TNLAP/Instances/sol/L30P180A1(A).log"
Set parameter Threads to value 1
Gurobi Optimizer version 12.0.0 build v12.0.0rc1 (mac64[arm] - Darwin 25.2.0 25C56)

CPU model: Apple M3 Pro
Thread count: 11 physical cores, 11 logical processors, using up to 1 threads

Non-default parameters:
TimeLimit  3600
Threads  1

Optimize a model with 85534 rows, 86359 columns and 1166698 nonzeros
Model fingerprint: 0xb8d752c2
Variable types: 7907 continuous, 78452 integer (78452 binary)
Coefficient statistics:
  Matrix range     [7e-04, 1e+04]
  Objective range  [1e+00, 1e+00]
  Bounds range     [1e+00, 1e+04]
  RHS range        [5e-01, 1e+04]
Presolve removed 59380 rows and 38377 columns
Presolve time: 1.59s
Presolved: 26154 rows, 47982 columns, 524751 nonzeros
Variable types: 2003 continuous, 45979 integer (43987 binary)
Found heuristic solution: objective 0.4236535
Found heuristic solution: objective 1.8152981

Root simplex log...

Iteration    Objective       Primal Inf.    Dual Inf.      Time
   37608    2.7945655e+01   5.501340e+05   0.000000e+00      5s
   43673    2.7960000e+01   0.000000e+00   0.000000e+00      6s
   43673    2.7960000e+01   0.000000e+00   0.000000e+00      6s

Root relaxation: objective 2.796000e+01, 43673 iterations, 3.80 seconds (9.19 work units)

    Nodes    |    Current Node    |     Objective Bounds      |     Work
 Expl Unexpl |  Obj  Depth IntInf | Incumbent    BestBd   Gap | It/Node Time

     0     0   27.96000    0  161    1.81530   27.96000  1440%     -    5s
     0     0   27.96000    0  468    1.81530   27.96000  1440%     -    6s
H    0     0                       1.8172981   27.96000  1439%     -    6s
H    0     0                      15.9666107   27.96000  75.1%     -    6s
H    0     0                      16.6223529   27.96000  68.2%     -    6s
H    0     0                      17.7335391   27.96000  57.7%     -    6s
H    0     0                      17.8810731   27.96000  56.4%     -    6s
H    0     0                      18.2521997   27.96000  53.2%     -    6s
H    0     0                      18.5082599   27.96000  51.1%     -    6s
H    0     0                      18.6162211   27.96000  50.2%     -    6s
H    0     0                      18.8383379   27.96000  48.4%     -    6s
H    0     0                      18.8655500   27.96000  48.2%     -    6s
H    0     0                      19.0789558   27.96000  46.5%     -    7s
H    0     0                      20.0418575   27.96000  39.5%     -    7s
H    0     0                      20.3651909   27.96000  37.3%     -    7s
H    0     0                      21.3218758   27.96000  31.1%     -    7s
H    0     0                      22.8403692   27.96000  22.4%     -    7s
H    0     0                      22.8955124   27.96000  22.1%     -    7s
H    0     0                      23.0503753   27.96000  21.3%     -    7s
H    0     0                      23.2934873   27.96000  20.0%     -    7s
H    0     0                      23.3510264   27.96000  19.7%     -    7s
H    0     0                      23.4580601   27.96000  19.2%     -    7s
H    0     0                      23.4640126   27.96000  19.2%     -    7s
H    0     0                      23.6878315   27.96000  18.0%     -    7s
H    0     0                      24.0275049   27.96000  16.4%     -    7s
H    0     0                      24.2047836   27.96000  15.5%     -    7s
H    0     0                      25.0068031   27.96000  11.8%     -    7s
H    0     0                      25.0600164   27.96000  11.6%     -    7s
     0     0   27.96000    0  733   25.06002   27.96000  11.6%     -    7s
     0     0   27.89595    0  152   25.06002   27.89595  11.3%     -   14s
     0     0   27.88500    0  429   25.06002   27.88500  11.3%     -   14s
     0     0   27.88500    0  364   25.06002   27.88500  11.3%     -   14s
     0     0   27.87636    0  348   25.06002   27.87636  11.2%     -   14s
     0     0   27.87083    0  317   25.06002   27.87083  11.2%     -   14s
     0     0   27.86750    0  375   25.06002   27.86750  11.2%     -   14s
     0     0   27.86750    0  514   25.06002   27.86750  11.2%     -   14s
     0     0   27.86750    0  841   25.06002   27.86750  11.2%     -   15s
     0     0   27.86275    0  905   25.06002   27.86275  11.2%     -   15s
     0     0   27.86100    0  998   25.06002   27.86100  11.2%     -   16s
     0     0   27.86100    0 1137   25.06002   27.86100  11.2%     -   16s
H    0     0                      25.0949038   27.86100  11.0%     -   17s
H    0     0                      25.1418235   27.86100  10.8%     -   17s
     0     0   27.86100    0  904   25.14182   27.86100  10.8%     -   18s
     0     0   27.86100    0  729   25.14182   27.86100  10.8%     -   19s
     0     0   27.86100    0 1176   25.14182   27.86100  10.8%     -   19s
     0     0   27.85740    0  955   25.14182   27.85740  10.8%     -   20s
     0     0   27.83652    0  776   25.14182   27.83652  10.7%     -   20s
     0     0   27.83500    0  385   25.14182   27.83500  10.7%     -   21s
     0     0   27.83500    0  337   25.14182   27.83500  10.7%     -   21s
     0     0   27.83500    0  323   25.14182   27.83500  10.7%     -   21s
     0     0   27.83500    0  357   25.14182   27.83500  10.7%     -   21s
     0     0   27.83500    0  314   25.14182   27.83500  10.7%     -   21s
H    0     0                      25.1742463   27.83500  10.6%     -   21s
H    0     0                      25.1748915   27.83500  10.6%     -   21s
H    0     0                      25.2360249   27.83500  10.3%     -   21s
H    0     0                      25.3255237   27.83500  9.91%     -   21s
H    0     0                      25.3808462   27.83500  9.67%     -   21s
H    0     0                      25.4015956   27.83500  9.58%     -   21s
H    0     0                      25.6017077   27.83500  8.72%     -   21s
     0     0   27.83500    0  319   25.60171   27.83500  8.72%     -   22s
     0     0   27.83500    0  286   25.60171   27.83500  8.72%     -   22s
     0     0   27.83500    0  286   25.60171   27.83500  8.72%     -   22s
     0     0   27.83500    0  739   25.60171   27.83500  8.72%     -   22s
     0     0   27.83500    0 1021   25.60171   27.83500  8.72%     -   23s
     0     0   27.83500    0  736   25.60171   27.83500  8.72%     -   23s
     0     0   27.83500    0  518   25.60171   27.83500  8.72%     -   23s
H    0     0                      25.6290390   27.83500  8.61%     -   23s
H    0     0                      25.6973020   27.83500  8.32%     -   24s
H    0     0                      25.7562111   27.83500  8.07%     -   24s
     0     0   27.83500    0  332   25.75621   27.83500  8.07%     -   24s
     0     0   27.83500    0  344   25.75621   27.83500  8.07%     -   24s
     0     0   27.83500    0  161   25.75621   27.83500  8.07%     -   25s
     0     0   27.83500    0  228   25.75621   27.83500  8.07%     -   25s
H    0     0                      25.7936553   27.83500  7.91%     -   25s
H    0     0                      25.8231395   27.83500  7.79%     -   25s
H    0     0                      25.9464851   27.83500  7.28%     -   25s
H    0     0                      25.9591689   27.83500  7.23%     -   25s
H    0     0                      26.0340151   27.83500  6.92%     -   25s
H    0     0                      26.0645062   27.83500  6.79%     -   25s
H    0     0                      26.0689938   27.83500  6.77%     -   25s
H    0     0                      26.1192833   27.83500  6.57%     -   26s
     0     0   27.83494    0  307   26.11928   27.83494  6.57%     -   26s
     0     0   27.83494    0  234   26.11928   27.83494  6.57%     -   27s
     0     0   27.83494    0  412   26.11928   27.83494  6.57%     -   27s
     0     0   27.83494    0  343   26.11928   27.83494  6.57%     -   27s
     0     0   27.83494    0  343   26.11928   27.83494  6.57%     -   27s
     0     0   27.83494    0  349   26.11928   27.83494  6.57%     -   27s
     0     0   27.83494    0  349   26.11928   27.83494  6.57%     -   27s
     0     0   27.83494    0  455   26.11928   27.83494  6.57%     -   27s
     0     0   27.83494    0  431   26.11928   27.83494  6.57%     -   27s
     0     0   27.83494    0  469   26.11928   27.83494  6.57%     -   27s
     0     0   27.83494    0  431   26.11928   27.83494  6.57%     -   27s
     0     0   27.83494    0  437   26.11928   27.83494  6.57%     -   27s
     0     0   27.83494    0  431   26.11928   27.83494  6.57%     -   27s
     0     0   27.83494    0  469   26.11928   27.83494  6.57%     -   27s
     0     0   27.83494    0  431   26.11928   27.83494  6.57%     -   27s
     0     0   27.83494    0  781   26.11928   27.83494  6.57%     -   28s
     0     0   27.83406    0  649   26.11928   27.83406  6.57%     -   28s
     0     0   27.83406    0  516   26.11928   27.83406  6.57%     -   28s
     0     0   27.83406    0  373   26.11928   27.83406  6.57%     -   29s
     0     0   27.83406    0  368   26.11928   27.83406  6.57%     -   29s
     0     0   27.83406    0  458   26.11928   27.83406  6.57%     -   29s
     0     0   27.83406    0  268   26.11928   27.83406  6.57%     -   29s
     0     0   27.83406    0  306   26.11928   27.83406  6.57%     -   29s
     0     0   27.83406    0  306   26.11928   27.83406  6.57%     -   29s
     0     0   27.83406    0  306   26.11928   27.83406  6.57%     -   29s
     0     0   27.83406    0  306   26.11928   27.83406  6.57%     -   29s
H    0     0                      26.1505879   27.83406  6.44%     -   29s
H    0     0                      26.2401933   27.83406  6.07%     -   30s
H    0     0                      26.2795493   27.83406  5.92%     -   30s
H    0     0                      26.3144367   27.83406  5.77%     -   30s
     0     0   27.83400    0  426   26.31444   27.83400  5.77%     -   30s
     0     0   27.83400    0  424   26.31444   27.83400  5.77%     -   30s
     0     0   27.82833    0  857   26.31444   27.82833  5.75%     -   31s
     0     0   27.82833    0  516   26.31444   27.82833  5.75%     -   31s
     0     0   27.82833    0  488   26.31444   27.82833  5.75%     -   31s
     0     0   27.82833    0  430   26.31444   27.82833  5.75%     -   31s
     0     0   27.82833    0  406   26.31444   27.82833  5.75%     -   31s
     0     0   27.82833    0  413   26.31444   27.82833  5.75%     -   31s
     0     0   27.82833    0  375   26.31444   27.82833  5.75%     -   31s
     0     0   27.81848    0  759   26.31444   27.81848  5.72%     -   32s
     0     0   27.81847    0  786   26.31444   27.81847  5.72%     -   32s
     0     0   27.81847    0  710   26.31444   27.81847  5.72%     -   33s
     0     0   27.81847    0  481   26.31444   27.81847  5.72%     -   33s
     0     0   27.81847    0  478   26.31444   27.81847  5.72%     -   33s
     0     0   27.81847    0  479   26.31444   27.81847  5.72%     -   33s
     0     0   27.81847    0  478   26.31444   27.81847  5.72%     -   33s
H    0     0                      26.3377780   27.81847  5.62%     -   33s
     0     0   27.81847    0  587   26.33778   27.81847  5.62%     -   34s
     0     0   27.80661    0  727   26.33778   27.80661  5.58%     -   34s
     0     0   27.80661    0  788   26.33778   27.80661  5.58%     -   35s
     0     0   27.80661    0  607   26.33778   27.80661  5.58%     -   35s
     0     0   27.80661    0  376   26.33778   27.80661  5.58%     -   35s
     0     0   27.80661    0  242   26.33778   27.80661  5.58%     -   35s
     0     0   27.80661    0  291   26.33778   27.80661  5.58%     -   35s
     0     0   27.80646    0  496   26.33778   27.80646  5.58%     -   35s
     0     0   27.80646    0  490   26.33778   27.80646  5.58%     -   35s
     0     0   27.80621    0  541   26.33778   27.80621  5.58%     -   36s
     0     0   27.80621    0  697   26.33778   27.80621  5.58%     -   36s
     0     0   27.80621    0  504   26.33778   27.80621  5.58%     -   36s
     0     0   27.80621    0  497   26.33778   27.80621  5.58%     -   36s
     0     0   27.80621    0  613   26.33778   27.80621  5.58%     -   37s
     0     0   27.80621    0  704   26.33778   27.80621  5.58%     -   37s
     0     0   27.80621    0  677   26.33778   27.80621  5.58%     -   37s
     0     0   27.80621    0  489   26.33778   27.80621  5.58%     -   38s
     0     0   27.80621    0  495   26.33778   27.80621  5.58%     -   38s
     0     0   27.80621    0  359   26.33778   27.80621  5.58%     -   38s
     0     0   27.80621    0  262   26.33778   27.80621  5.58%     -   38s
     0     0   27.80621    0  302   26.33778   27.80621  5.58%     -   38s
     0     0   27.80621    0  368   26.33778   27.80621  5.58%     -   38s
     0     0   27.80621    0  365   26.33778   27.80621  5.58%     -   38s
     0     0   27.80374    0  898   26.33778   27.80374  5.57%     -   39s
     0     0   27.80374    0  763   26.33778   27.80374  5.57%     -   39s
     0     0   27.80374    0  629   26.33778   27.80374  5.57%     -   39s
     0     0   27.80374    0  482   26.33778   27.80374  5.57%     -   39s
     0     0   27.79970    0  462   26.33778   27.79970  5.55%     -   40s
     0     0   27.79965    0  509   26.33778   27.79965  5.55%     -   40s
     0     0   27.79965    0  506   26.33778   27.79965  5.55%     -   40s
     0     0   27.78500    0  951   26.33778   27.78500  5.49%     -   41s
     0     0   27.78500    0  909   26.33778   27.78500  5.49%     -   42s
     0     0   27.78500    0  880   26.33778   27.78500  5.49%     -   43s
     0     0   27.78500    0  653   26.33778   27.78500  5.49%     -   43s
H    0     0                      26.3445412   27.78500  5.47%     -   43s
H    0     0                      26.3565076   27.78500  5.42%     -   44s
     0     0   27.77865    0  955   26.35651   27.77865  5.40%     -   45s
     0     0   27.77865    0  858   26.35651   27.77865  5.40%     -   45s
     0     0   27.77865    0  823   26.35651   27.77865  5.40%     -   45s
     0     0   27.74627    0 1071   26.35651   27.74627  5.27%     -   47s
     0     0   27.74598    0  877   26.35651   27.74598  5.27%     -   47s
     0     0   27.74598    0  808   26.35651   27.74598  5.27%     -   48s
     0     0   27.74598    0  811   26.35651   27.74598  5.27%     -   48s
     0     0   27.74598    0  778   26.35651   27.74598  5.27%     -   48s
     0     0   27.74529    0  755   26.35651   27.74529  5.27%     -   48s
     0     0   27.74529    0  666   26.35651   27.74529  5.27%     -   48s
     0     0   27.74529    0  646   26.35651   27.74529  5.27%     -   48s
     0     0   27.72957    0 1090   26.35651   27.72957  5.21%     -   49s
     0     0   27.72842    0  840   26.35651   27.72842  5.21%     -   50s
     0     0   27.72842    0  619   26.35651   27.72842  5.21%     -   50s
     0     0   27.72842    0  565   26.35651   27.72842  5.21%     -   51s
     0     0   27.72842    0  664   26.35651   27.72842  5.21%     -   52s
     0     0   27.72836    0  749   26.35651   27.72836  5.21%     -   52s
     0     0   27.72836    0  590   26.35651   27.72836  5.21%     -   52s
     0     0   27.72836    0  569   26.35651   27.72836  5.21%     -   52s
     0     0   27.72045    0 1002   26.35651   27.72045  5.17%     -   53s
     0     0   27.71917    0  876   26.35651   27.71917  5.17%     -   54s
     0     0   27.71917    0  962   26.35651   27.71917  5.17%     -   54s
     0     0   27.71917    0  845   26.35651   27.71917  5.17%     -   55s
     0     0   27.71916    0  721   26.35651   27.71916  5.17%     -   55s
     0     0   27.71916    0  642   26.35651   27.71916  5.17%     -   55s
     0     0   27.71916    0  886   26.35651   27.71916  5.17%     -   55s
     0     0   27.71916    0  615   26.35651   27.71916  5.17%     -   56s
     0     0   27.71916    0  599   26.35651   27.71916  5.17%     -   56s
     0     0   27.71916    0  598   26.35651   27.71916  5.17%     -   56s
     0     0   27.71916    0  598   26.35651   27.71916  5.17%     -   56s
     0     0   27.71916    0  876   26.35651   27.71916  5.17%     -   56s
     0     0   27.71916    0  736   26.35651   27.71916  5.17%     -   56s
     0     0   27.71916    0  595   26.35651   27.71916  5.17%     -   56s
     0     0   27.71916    0  663   26.35651   27.71916  5.17%     -   56s
     0     0   27.71916    0  635   26.35651   27.71916  5.17%     -   56s
     0     0   27.71908    0 1110   26.35651   27.71908  5.17%     -   58s
     0     0   27.71907    0  950   26.35651   27.71907  5.17%     -   58s
     0     0   27.71906    0  752   26.35651   27.71906  5.17%     -   58s
     0     0   27.71906    0  604   26.35651   27.71906  5.17%     -   58s
     0     0   27.71906    0  819   26.35651   27.71906  5.17%     -   58s
     0     0   27.71906    0  850   26.35651   27.71906  5.17%     -   59s
     0     0   27.71906    0  844   26.35651   27.71906  5.17%     -   59s
     0     0   27.71906    0  686   26.35651   27.71906  5.17%     -   59s
     0     2   27.71894    0  686   26.35651   27.71894  5.17%     -   64s
    11    13   27.71894   11  994   26.35651   27.71894  5.17%   804   65s
    39    41   27.71755   35  664   26.35651   27.71894  5.17%   811   70s
H   52    52                      26.3654818   27.71894  5.13%   664   71s
H   52    52                      26.3857957   27.71894  5.05%   664   71s
H   78    78                      26.3957410   27.71894  5.01%   556   74s
H   78    78                      26.4080611   27.71894  4.96%   556   75s
   162   164   27.68646  152  371   26.40806   27.71894  4.96%   451   80s
H  174   174                      26.4149774   27.71894  4.94%   437   86s
H  174   174                      26.4299074   27.71894  4.88%   437   87s
H  174   174                      26.4352308   27.71894  4.86%   437   87s
   254   256   27.66611  219  455   26.43523   27.71894  4.86%   368   90s
H  378   378                      26.4610071   27.71894  4.75%   294   93s
   421   422   26.86045  348  107   26.46101   27.71894  4.75%   267   95s
   487   466   27.70496   71  485   26.46101   27.71894  4.75%   292  100s
   525   503   27.70464   83  733   26.46101   27.71894  4.75%   289  116s
H  526   478                      26.5217081   27.71894  4.51%   288  120s
   530   480   27.49744  243 1019   26.52171   27.71894  4.51%   286  125s
   532   482   27.40738   62 1037   26.52171   27.71894  4.51%   285  131s
   534   483   27.47681  268 1110   26.52171   27.71894  4.51%   284  136s
   536   484   27.70091   98 1147   26.52171   27.71894  4.51%   283  142s
   538   486   27.69632   46 1258   26.52171   27.69632  4.43%   282  147s
   540   487   27.49406   55 1236   26.52171   27.67478  4.35%   281  153s
   541   488   27.47494   74 1130   26.52171   27.67011  4.33%   280  155s
   543   489   27.62865  189 1147   26.52171   27.64597  4.24%   279  160s
   546   491   27.63275   85 1177   26.52171   27.63275  4.19%   278  168s
   547   492   27.26906   59 1225   26.52171   27.63275  4.19%   277  172s
   548   492   27.63078  227 1314   26.52171   27.63078  4.18%   277  177s
   549   493   27.43284  274 1355   26.52171   27.62852  4.17%   276  180s
   550   494   27.45986   35 1175   26.52171   27.60879  4.10%   276  185s
   552   495   27.40749   52 1045   26.52171   27.58663  4.02%   275  194s
   553   496   27.47498  100 1157   26.52171   27.58121  3.99%   274  196s
H  553   471                      26.5272727   27.56815  3.92%   274  203s
H  553   447                      26.5362117   27.56815  3.89%   274  203s
   554   447   27.31190  315 1115   26.53621   27.56815  3.89%   274  206s
   556   449   27.47681  257 1277   26.53621   27.54541  3.80%   273  214s
   557   449   27.28392  186 1198   26.53621   27.53681  3.77%   272  217s
   558   450   27.50194   64 1199   26.53621   27.50194  3.64%   272  222s
   560   451   27.37172  277 1037   26.53621   27.45350  3.46%   271  228s
   561   452   27.44486  113  990   26.53621   27.44486  3.42%   270  231s
   562   453   27.41637  189 1356   26.53621   27.41637  3.32%   270  235s
   564   454   27.36252  332 1048   26.53621   27.37079  3.15%   269  242s
   566   455   27.32171   78 1406   26.53621   27.32171  2.96%   268  247s
   568   457   27.27708   19 1026   26.53621   27.27708  2.79%   267  252s
   570   458   27.22601   34  997   26.53621   27.22601  2.60%   266  257s
   572   459   27.19703  243  859   26.53621   27.19703  2.49%   265  262s
   574   461   27.16520  271 1141   26.53621   27.16520  2.37%   264  266s
   576   462   27.13246  129  957   26.53621   27.13246  2.25%   263  270s
   580   465   27.07031   74 1054   26.53621   27.07031  2.01%   261  278s
   582   466   27.04243  294 1000   26.53621   27.04243  1.91%   260  281s
   585   468   26.99826   94  776   26.53621   26.99826  1.74%   259  285s
   588   470   26.94565  287  782   26.53621   26.94565  1.54%   258  291s
   590   471   26.89676   86  901   26.53621   26.89676  1.36%   257  295s
   594   474   26.84742  312  990   26.53621   26.84742  1.17%   255  302s
   596   475   26.81394  232  721   26.53621   26.81394  1.05%   254  306s
   599   477   26.77919  206  795   26.53621   26.77919  0.92%   253  310s
   603   480   26.73932  328  604   26.53621   26.73932  0.77%   251  315s
   608   483   26.70459  299  598   26.53621   26.70459  0.63%   249  320s
H  611   459                      26.5433190   26.68500  0.53%   248  324s
H  611   435                      26.5734307   26.68500  0.42%   248  324s
   614   437   26.67424   58  624   26.57343   26.67424  0.38%   247  325s
   619   442   26.67424  102  889   26.57343   26.67424  0.38%  1423  330s
   623   446   26.67424  303  307   26.57343   26.67424  0.38%  1448  335s
   629   451   26.67424   98  430   26.57343   26.67424  0.38%  1484  341s
   634   456   26.67424  268  550   26.57343   26.67424  0.38%  1512  345s
   637   458   26.67424   47  983   26.57343   26.67424  0.38%  1505  351s
   642   463   26.67424    9  509   26.57343   26.67424  0.38%  1560  355s
   646   466   26.67424   85 1108   26.57343   26.67424  0.38%  1550  360s

Cutting planes:
  Learned: 10
  Gomory: 39
  Cover: 69
  Implied bound: 186
  Projected implied bound: 10
  Clique: 37
  MIR: 50
  StrongCG: 6
  Flow cover: 119
  GUB cover: 44
  RLT: 74
  Relax-and-lift: 57
  BQP: 1
  PSD: 1

Explored 648 nodes (1379264 simplex iterations) in 362.43 seconds (820.06 work units)
Thread count was 1 (of 11 available processors)

Solution count 10: 26.5734 26.5433 26.5362 ... 26.4081

Solve interrupted
Best objective 2.657343072304e+01, best bound 2.667423570794e+01, gap 0.3793%
